NAME: line_52_6
TYPE: TSP
COMMENT: srandom_52_6
DIMENSION: 52
EDGE_WEIGHT_TYPE: EUC_2D
NODE_COORD_SECTION
1 4106 4159
2 507 689
3 1035 4739
4 2535 1431
5 4932 258
6 4478 2858
7 2002 396
8 1359 3386
9 4012 3662
10 383 3957
11 2714 4059
12 714 905
13 4035 4130
14 838 848
15 766 754
16 4315 3634
17 1658 3805
18 974 2742
19 1103 1287
20 4482 402
21 2209 899
22 3148 2268
23 3883 3572
24 1278 96
25 3110 4119
26 1469 646
27 1997 261
28 946 698
29 2709 3413
30 1885 125
31 225 1663
32 2716 137
33 4251 3475
34 3357 2679
35 2201 3415
36 122 4267
37 1874 4178
38 1128 1813
39 684 1523
40 1934 2932
41 3960 3226
42 4247 4564
43 4793 2076
44 2427 4155
45 4557 195
46 2217 1216
47 304 3152
48 33 4140
49 1438 2778
50 2597 4474
51 3977 2438
52 438 1462
